\* Makespan *\
Minimize
Makespan: t
Subject To
_C1: debut_tache_1 >= 1
_C10: debut_tache_1 - debut_tache_5 - 153 x_5_1 <= 3
_C100: - debut_tache_1 + debut_tache_7 - 153 x_1_7 <= 7
_C101: - debut_tache_2 + debut_tache_7 - 153 x_2_7 >= -131
_C102: - debut_tache_2 + debut_tache_7 - 153 x_2_7 <= 21
_C103: - debut_tache_3 + debut_tache_7 - 153 x_3_7 >= -133
_C104: - debut_tache_3 + debut_tache_7 - 153 x_3_7 <= 19
_C105: - debut_tache_4 + debut_tache_7 - 153 x_4_7 >= -142
_C106: - debut_tache_4 + debut_tache_7 - 153 x_4_7 <= 10
_C107: - debut_tache_5 + debut_tache_7 - 153 x_5_7 >= -149
_C108: - debut_tache_5 + debut_tache_7 - 153 x_5_7 <= 3
_C109: - debut_tache_6 + debut_tache_7 - 153 x_6_7 >= -127
_C11: debut_tache_1 - debut_tache_6 - 153 x_6_1 >= -127
_C110: - debut_tache_6 + debut_tache_7 - 153 x_6_7 <= 25
_C111: debut_tache_7 - debut_tache_8 - 153 x_8_7 >= -147
_C112: debut_tache_7 - debut_tache_8 - 153 x_8_7 <= 5
_C113: debut_tache_8 >= 1
_C114: - debut_tache_8 + t >= 7
_C115: - debut_tache_1 + debut_tache_8 - 153 x_1_8 >= -145
_C116: - debut_tache_1 + debut_tache_8 - 153 x_1_8 <= 7
_C117: - debut_tache_2 + debut_tache_8 - 153 x_2_8 >= -131
_C118: - debut_tache_2 + debut_tache_8 - 153 x_2_8 <= 21
_C119: - debut_tache_3 + debut_tache_8 - 153 x_3_8 >= -133
_C12: debut_tache_1 - debut_tache_6 - 153 x_6_1 <= 25
_C120: - debut_tache_3 + debut_tache_8 - 153 x_3_8 <= 19
_C121: - debut_tache_4 + debut_tache_8 - 153 x_4_8 >= -142
_C122: - debut_tache_4 + debut_tache_8 - 153 x_4_8 <= 10
_C123: - debut_tache_5 + debut_tache_8 - 153 x_5_8 >= -149
_C124: - debut_tache_5 + debut_tache_8 - 153 x_5_8 <= 3
_C125: - debut_tache_6 + debut_tache_8 - 153 x_6_8 >= -127
_C126: - debut_tache_6 + debut_tache_8 - 153 x_6_8 <= 25
_C127: - debut_tache_7 + debut_tache_8 - 153 x_7_8 >= -138
_C128: - debut_tache_7 + debut_tache_8 - 153 x_7_8 <= 14
_C129: x_1_2 + x_2_1 = 1
_C13: debut_tache_1 - debut_tache_7 - 153 x_7_1 >= -138
_C130: - x_1_2 + x_1_3 - x_2_3 >= -1
_C131: - x_1_2 + x_1_4 - x_2_4 >= -1
_C132: - x_1_2 + x_1_5 - x_2_5 >= -1
_C133: - x_1_2 + x_1_6 - x_2_6 >= -1
_C134: - x_1_2 + x_1_7 - x_2_7 >= -1
_C135: - x_1_2 + x_1_8 - x_2_8 >= -1
_C136: x_1_3 + x_3_1 = 1
_C137: x_1_2 - x_1_3 - x_3_2 >= -1
_C138: - x_1_3 + x_1_4 - x_3_4 >= -1
_C139: - x_1_3 + x_1_5 - x_3_5 >= -1
_C14: debut_tache_1 - debut_tache_7 - 153 x_7_1 <= 14
_C140: - x_1_3 + x_1_6 - x_3_6 >= -1
_C141: - x_1_3 + x_1_7 - x_3_7 >= -1
_C142: - x_1_3 + x_1_8 - x_3_8 >= -1
_C143: x_1_4 + x_4_1 = 1
_C144: x_1_2 - x_1_4 - x_4_2 >= -1
_C145: x_1_3 - x_1_4 - x_4_3 >= -1
_C146: - x_1_4 + x_1_5 - x_4_5 >= -1
_C147: - x_1_4 + x_1_6 - x_4_6 >= -1
_C148: - x_1_4 + x_1_7 - x_4_7 >= -1
_C149: - x_1_4 + x_1_8 - x_4_8 >= -1
_C15: debut_tache_1 - debut_tache_8 - 153 x_8_1 >= -147
_C150: x_1_5 + x_5_1 = 1
_C151: x_1_2 - x_1_5 - x_5_2 >= -1
_C152: x_1_3 - x_1_5 - x_5_3 >= -1
_C153: x_1_4 - x_1_5 - x_5_4 >= -1
_C154: - x_1_5 + x_1_6 - x_5_6 >= -1
_C155: - x_1_5 + x_1_7 - x_5_7 >= -1
_C156: - x_1_5 + x_1_8 - x_5_8 >= -1
_C157: x_1_6 + x_6_1 = 1
_C158: x_1_2 - x_1_6 - x_6_2 >= -1
_C159: x_1_3 - x_1_6 - x_6_3 >= -1
_C16: debut_tache_1 - debut_tache_8 - 153 x_8_1 <= 5
_C160: x_1_4 - x_1_6 - x_6_4 >= -1
_C161: x_1_5 - x_1_6 - x_6_5 >= -1
_C162: - x_1_6 + x_1_7 - x_6_7 >= -1
_C163: - x_1_6 + x_1_8 - x_6_8 >= -1
_C164: x_1_7 + x_7_1 = 1
_C165: x_1_2 - x_1_7 - x_7_2 >= -1
_C166: x_1_3 - x_1_7 - x_7_3 >= -1
_C167: x_1_4 - x_1_7 - x_7_4 >= -1
_C168: x_1_5 - x_1_7 - x_7_5 >= -1
_C169: x_1_6 - x_1_7 - x_7_6 >= -1
_C17: debut_tache_2 >= 4
_C170: - x_1_7 + x_1_8 - x_7_8 >= -1
_C171: x_1_8 + x_8_1 = 1
_C172: x_1_2 - x_1_8 - x_8_2 >= -1
_C173: x_1_3 - x_1_8 - x_8_3 >= -1
_C174: x_1_4 - x_1_8 - x_8_4 >= -1
_C175: x_1_5 - x_1_8 - x_8_5 >= -1
_C176: x_1_6 - x_1_8 - x_8_6 >= -1
_C177: x_1_7 - x_1_8 - x_8_7 >= -1
_C178: x_1_2 + x_2_1 = 1
_C179: - x_1_3 - x_2_1 + x_2_3 >= -1
_C18: - debut_tache_2 + t >= 25
_C180: - x_1_4 - x_2_1 + x_2_4 >= -1
_C181: - x_1_5 - x_2_1 + x_2_5 >= -1
_C182: - x_1_6 - x_2_1 + x_2_6 >= -1
_C183: - x_1_7 - x_2_1 + x_2_7 >= -1
_C184: - x_1_8 - x_2_1 + x_2_8 >= -1
_C185: x_2_3 + x_3_2 = 1
_C186: x_2_1 - x_2_3 - x_3_1 >= -1
_C187: - x_2_3 + x_2_4 - x_3_4 >= -1
_C188: - x_2_3 + x_2_5 - x_3_5 >= -1
_C189: - x_2_3 + x_2_6 - x_3_6 >= -1
_C19: - debut_tache_1 + debut_tache_2 - 153 x_1_2 >= -145
_C190: - x_2_3 + x_2_7 - x_3_7 >= -1
_C191: - x_2_3 + x_2_8 - x_3_8 >= -1
_C192: x_2_4 + x_4_2 = 1
_C193: x_2_1 - x_2_4 - x_4_1 >= -1
_C194: x_2_3 - x_2_4 - x_4_3 >= -1
_C195: - x_2_4 + x_2_5 - x_4_5 >= -1
_C196: - x_2_4 + x_2_6 - x_4_6 >= -1
_C197: - x_2_4 + x_2_7 - x_4_7 >= -1
_C198: - x_2_4 + x_2_8 - x_4_8 >= -1
_C199: x_2_5 + x_5_2 = 1
_C2: - debut_tache_1 + t >= 9
_C20: - debut_tache_1 + debut_tache_2 - 153 x_1_2 <= 7
_C200: x_2_1 - x_2_5 - x_5_1 >= -1
_C201: x_2_3 - x_2_5 - x_5_3 >= -1
_C202: x_2_4 - x_2_5 - x_5_4 >= -1
_C203: - x_2_5 + x_2_6 - x_5_6 >= -1
_C204: - x_2_5 + x_2_7 - x_5_7 >= -1
_C205: - x_2_5 + x_2_8 - x_5_8 >= -1
_C206: x_2_6 + x_6_2 = 1
_C207: x_2_1 - x_2_6 - x_6_1 >= -1
_C208: x_2_3 - x_2_6 - x_6_3 >= -1
_C209: x_2_4 - x_2_6 - x_6_4 >= -1
_C21: debut_tache_2 - debut_tache_3 - 153 x_3_2 >= -133
_C210: x_2_5 - x_2_6 - x_6_5 >= -1
_C211: - x_2_6 + x_2_7 - x_6_7 >= -1
_C212: - x_2_6 + x_2_8 - x_6_8 >= -1
_C213: x_2_7 + x_7_2 = 1
_C214: x_2_1 - x_2_7 - x_7_1 >= -1
_C215: x_2_3 - x_2_7 - x_7_3 >= -1
_C216: x_2_4 - x_2_7 - x_7_4 >= -1
_C217: x_2_5 - x_2_7 - x_7_5 >= -1
_C218: x_2_6 - x_2_7 - x_7_6 >= -1
_C219: - x_2_7 + x_2_8 - x_7_8 >= -1
_C22: debut_tache_2 - debut_tache_3 - 153 x_3_2 <= 19
_C220: x_2_8 + x_8_2 = 1
_C221: x_2_1 - x_2_8 - x_8_1 >= -1
_C222: x_2_3 - x_2_8 - x_8_3 >= -1
_C223: x_2_4 - x_2_8 - x_8_4 >= -1
_C224: x_2_5 - x_2_8 - x_8_5 >= -1
_C225: x_2_6 - x_2_8 - x_8_6 >= -1
_C226: x_2_7 - x_2_8 - x_8_7 >= -1
_C227: x_1_3 + x_3_1 = 1
_C228: - x_1_2 - x_3_1 + x_3_2 >= -1
_C229: - x_1_4 - x_3_1 + x_3_4 >= -1
_C23: debut_tache_2 - debut_tache_4 - 153 x_4_2 >= -142
_C230: - x_1_5 - x_3_1 + x_3_5 >= -1
_C231: - x_1_6 - x_3_1 + x_3_6 >= -1
_C232: - x_1_7 - x_3_1 + x_3_7 >= -1
_C233: - x_1_8 - x_3_1 + x_3_8 >= -1
_C234: x_2_3 + x_3_2 = 1
_C235: - x_2_1 + x_3_1 - x_3_2 >= -1
_C236: - x_2_4 - x_3_2 + x_3_4 >= -1
_C237: - x_2_5 - x_3_2 + x_3_5 >= -1
_C238: - x_2_6 - x_3_2 + x_3_6 >= -1
_C239: - x_2_7 - x_3_2 + x_3_7 >= -1
_C24: debut_tache_2 - debut_tache_4 - 153 x_4_2 <= 10
_C240: - x_2_8 - x_3_2 + x_3_8 >= -1
_C241: x_3_4 + x_4_3 = 1
_C242: x_3_1 - x_3_4 - x_4_1 >= -1
_C243: x_3_2 - x_3_4 - x_4_2 >= -1
_C244: - x_3_4 + x_3_5 - x_4_5 >= -1
_C245: - x_3_4 + x_3_6 - x_4_6 >= -1
_C246: - x_3_4 + x_3_7 - x_4_7 >= -1
_C247: - x_3_4 + x_3_8 - x_4_8 >= -1
_C248: x_3_5 + x_5_3 = 1
_C249: x_3_1 - x_3_5 - x_5_1 >= -1
_C25: debut_tache_2 - debut_tache_5 - 153 x_5_2 >= -149
_C250: x_3_2 - x_3_5 - x_5_2 >= -1
_C251: x_3_4 - x_3_5 - x_5_4 >= -1
_C252: - x_3_5 + x_3_6 - x_5_6 >= -1
_C253: - x_3_5 + x_3_7 - x_5_7 >= -1
_C254: - x_3_5 + x_3_8 - x_5_8 >= -1
_C255: x_3_6 + x_6_3 = 1
_C256: x_3_1 - x_3_6 - x_6_1 >= -1
_C257: x_3_2 - x_3_6 - x_6_2 >= -1
_C258: x_3_4 - x_3_6 - x_6_4 >= -1
_C259: x_3_5 - x_3_6 - x_6_5 >= -1
_C26: debut_tache_2 - debut_tache_5 - 153 x_5_2 <= 3
_C260: - x_3_6 + x_3_7 - x_6_7 >= -1
_C261: - x_3_6 + x_3_8 - x_6_8 >= -1
_C262: x_3_7 + x_7_3 = 1
_C263: x_3_1 - x_3_7 - x_7_1 >= -1
_C264: x_3_2 - x_3_7 - x_7_2 >= -1
_C265: x_3_4 - x_3_7 - x_7_4 >= -1
_C266: x_3_5 - x_3_7 - x_7_5 >= -1
_C267: x_3_6 - x_3_7 - x_7_6 >= -1
_C268: - x_3_7 + x_3_8 - x_7_8 >= -1
_C269: x_3_8 + x_8_3 = 1
_C27: debut_tache_2 - debut_tache_6 - 153 x_6_2 >= -127
_C270: x_3_1 - x_3_8 - x_8_1 >= -1
_C271: x_3_2 - x_3_8 - x_8_2 >= -1
_C272: x_3_4 - x_3_8 - x_8_4 >= -1
_C273: x_3_5 - x_3_8 - x_8_5 >= -1
_C274: x_3_6 - x_3_8 - x_8_6 >= -1
_C275: x_3_7 - x_3_8 - x_8_7 >= -1
_C276: x_1_4 + x_4_1 = 1
_C277: - x_1_2 - x_4_1 + x_4_2 >= -1
_C278: - x_1_3 - x_4_1 + x_4_3 >= -1
_C279: - x_1_5 - x_4_1 + x_4_5 >= -1
_C28: debut_tache_2 - debut_tache_6 - 153 x_6_2 <= 25
_C280: - x_1_6 - x_4_1 + x_4_6 >= -1
_C281: - x_1_7 - x_4_1 + x_4_7 >= -1
_C282: - x_1_8 - x_4_1 + x_4_8 >= -1
_C283: x_2_4 + x_4_2 = 1
_C284: - x_2_1 + x_4_1 - x_4_2 >= -1
_C285: - x_2_3 - x_4_2 + x_4_3 >= -1
_C286: - x_2_5 - x_4_2 + x_4_5 >= -1
_C287: - x_2_6 - x_4_2 + x_4_6 >= -1
_C288: - x_2_7 - x_4_2 + x_4_7 >= -1
_C289: - x_2_8 - x_4_2 + x_4_8 >= -1
_C29: debut_tache_2 - debut_tache_7 - 153 x_7_2 >= -138
_C290: x_3_4 + x_4_3 = 1
_C291: - x_3_1 + x_4_1 - x_4_3 >= -1
_C292: - x_3_2 + x_4_2 - x_4_3 >= -1
_C293: - x_3_5 - x_4_3 + x_4_5 >= -1
_C294: - x_3_6 - x_4_3 + x_4_6 >= -1
_C295: - x_3_7 - x_4_3 + x_4_7 >= -1
_C296: - x_3_8 - x_4_3 + x_4_8 >= -1
_C297: x_4_5 + x_5_4 = 1
_C298: x_4_1 - x_4_5 - x_5_1 >= -1
_C299: x_4_2 - x_4_5 - x_5_2 >= -1
_C3: debut_tache_1 - debut_tache_2 - 153 x_2_1 >= -131
_C30: debut_tache_2 - debut_tache_7 - 153 x_7_2 <= 14
_C300: x_4_3 - x_4_5 - x_5_3 >= -1
_C301: - x_4_5 + x_4_6 - x_5_6 >= -1
_C302: - x_4_5 + x_4_7 - x_5_7 >= -1
_C303: - x_4_5 + x_4_8 - x_5_8 >= -1
_C304: x_4_6 + x_6_4 = 1
_C305: x_4_1 - x_4_6 - x_6_1 >= -1
_C306: x_4_2 - x_4_6 - x_6_2 >= -1
_C307: x_4_3 - x_4_6 - x_6_3 >= -1
_C308: x_4_5 - x_4_6 - x_6_5 >= -1
_C309: - x_4_6 + x_4_7 - x_6_7 >= -1
_C31: debut_tache_2 - debut_tache_8 - 153 x_8_2 >= -147
_C310: - x_4_6 + x_4_8 - x_6_8 >= -1
_C311: x_4_7 + x_7_4 = 1
_C312: x_4_1 - x_4_7 - x_7_1 >= -1
_C313: x_4_2 - x_4_7 - x_7_2 >= -1
_C314: x_4_3 - x_4_7 - x_7_3 >= -1
_C315: x_4_5 - x_4_7 - x_7_5 >= -1
_C316: x_4_6 - x_4_7 - x_7_6 >= -1
_C317: - x_4_7 + x_4_8 - x_7_8 >= -1
_C318: x_4_8 + x_8_4 = 1
_C319: x_4_1 - x_4_8 - x_8_1 >= -1
_C32: debut_tache_2 - debut_tache_8 - 153 x_8_2 <= 5
_C320: x_4_2 - x_4_8 - x_8_2 >= -1
_C321: x_4_3 - x_4_8 - x_8_3 >= -1
_C322: x_4_5 - x_4_8 - x_8_5 >= -1
_C323: x_4_6 - x_4_8 - x_8_6 >= -1
_C324: x_4_7 - x_4_8 - x_8_7 >= -1
_C325: x_1_5 + x_5_1 = 1
_C326: - x_1_2 - x_5_1 + x_5_2 >= -1
_C327: - x_1_3 - x_5_1 + x_5_3 >= -1
_C328: - x_1_4 - x_5_1 + x_5_4 >= -1
_C329: - x_1_6 - x_5_1 + x_5_6 >= -1
_C33: debut_tache_3 >= 4
_C330: - x_1_7 - x_5_1 + x_5_7 >= -1
_C331: - x_1_8 - x_5_1 + x_5_8 >= -1
_C332: x_2_5 + x_5_2 = 1
_C333: - x_2_1 + x_5_1 - x_5_2 >= -1
_C334: - x_2_3 - x_5_2 + x_5_3 >= -1
_C335: - x_2_4 - x_5_2 + x_5_4 >= -1
_C336: - x_2_6 - x_5_2 + x_5_6 >= -1
_C337: - x_2_7 - x_5_2 + x_5_7 >= -1
_C338: - x_2_8 - x_5_2 + x_5_8 >= -1
_C339: x_3_5 + x_5_3 = 1
_C34: - debut_tache_3 + t >= 24
_C340: - x_3_1 + x_5_1 - x_5_3 >= -1
_C341: - x_3_2 + x_5_2 - x_5_3 >= -1
_C342: - x_3_4 - x_5_3 + x_5_4 >= -1
_C343: - x_3_6 - x_5_3 + x_5_6 >= -1
_C344: - x_3_7 - x_5_3 + x_5_7 >= -1
_C345: - x_3_8 - x_5_3 + x_5_8 >= -1
_C346: x_4_5 + x_5_4 = 1
_C347: - x_4_1 + x_5_1 - x_5_4 >= -1
_C348: - x_4_2 + x_5_2 - x_5_4 >= -1
_C349: - x_4_3 + x_5_3 - x_5_4 >= -1
_C35: - debut_tache_1 + debut_tache_3 - 153 x_1_3 >= -145
_C350: - x_4_6 - x_5_4 + x_5_6 >= -1
_C351: - x_4_7 - x_5_4 + x_5_7 >= -1
_C352: - x_4_8 - x_5_4 + x_5_8 >= -1
_C353: x_5_6 + x_6_5 = 1
_C354: x_5_1 - x_5_6 - x_6_1 >= -1
_C355: x_5_2 - x_5_6 - x_6_2 >= -1
_C356: x_5_3 - x_5_6 - x_6_3 >= -1
_C357: x_5_4 - x_5_6 - x_6_4 >= -1
_C358: - x_5_6 + x_5_7 - x_6_7 >= -1
_C359: - x_5_6 + x_5_8 - x_6_8 >= -1
_C36: - debut_tache_1 + debut_tache_3 - 153 x_1_3 <= 7
_C360: x_5_7 + x_7_5 = 1
_C361: x_5_1 - x_5_7 - x_7_1 >= -1
_C362: x_5_2 - x_5_7 - x_7_2 >= -1
_C363: x_5_3 - x_5_7 - x_7_3 >= -1
_C364: x_5_4 - x_5_7 - x_7_4 >= -1
_C365: x_5_6 - x_5_7 - x_7_6 >= -1
_C366: - x_5_7 + x_5_8 - x_7_8 >= -1
_C367: x_5_8 + x_8_5 = 1
_C368: x_5_1 - x_5_8 - x_8_1 >= -1
_C369: x_5_2 - x_5_8 - x_8_2 >= -1
_C37: - debut_tache_2 + debut_tache_3 - 153 x_2_3 >= -131
_C370: x_5_3 - x_5_8 - x_8_3 >= -1
_C371: x_5_4 - x_5_8 - x_8_4 >= -1
_C372: x_5_6 - x_5_8 - x_8_6 >= -1
_C373: x_5_7 - x_5_8 - x_8_7 >= -1
_C374: x_1_6 + x_6_1 = 1
_C375: - x_1_2 - x_6_1 + x_6_2 >= -1
_C376: - x_1_3 - x_6_1 + x_6_3 >= -1
_C377: - x_1_4 - x_6_1 + x_6_4 >= -1
_C378: - x_1_5 - x_6_1 + x_6_5 >= -1
_C379: - x_1_7 - x_6_1 + x_6_7 >= -1
_C38: - debut_tache_2 + debut_tache_3 - 153 x_2_3 <= 21
_C380: - x_1_8 - x_6_1 + x_6_8 >= -1
_C381: x_2_6 + x_6_2 = 1
_C382: - x_2_1 + x_6_1 - x_6_2 >= -1
_C383: - x_2_3 - x_6_2 + x_6_3 >= -1
_C384: - x_2_4 - x_6_2 + x_6_4 >= -1
_C385: - x_2_5 - x_6_2 + x_6_5 >= -1
_C386: - x_2_7 - x_6_2 + x_6_7 >= -1
_C387: - x_2_8 - x_6_2 + x_6_8 >= -1
_C388: x_3_6 + x_6_3 = 1
_C389: - x_3_1 + x_6_1 - x_6_3 >= -1
_C39: debut_tache_3 - debut_tache_4 - 153 x_4_3 >= -142
_C390: - x_3_2 + x_6_2 - x_6_3 >= -1
_C391: - x_3_4 - x_6_3 + x_6_4 >= -1
_C392: - x_3_5 - x_6_3 + x_6_5 >= -1
_C393: - x_3_7 - x_6_3 + x_6_7 >= -1
_C394: - x_3_8 - x_6_3 + x_6_8 >= -1
_C395: x_4_6 + x_6_4 = 1
_C396: - x_4_1 + x_6_1 - x_6_4 >= -1
_C397: - x_4_2 + x_6_2 - x_6_4 >= -1
_C398: - x_4_3 + x_6_3 - x_6_4 >= -1
_C399: - x_4_5 - x_6_4 + x_6_5 >= -1
_C4: debut_tache_1 - debut_tache_2 - 153 x_2_1 <= 21
_C40: debut_tache_3 - debut_tache_4 - 153 x_4_3 <= 10
_C400: - x_4_7 - x_6_4 + x_6_7 >= -1
_C401: - x_4_8 - x_6_4 + x_6_8 >= -1
_C402: x_5_6 + x_6_5 = 1
_C403: - x_5_1 + x_6_1 - x_6_5 >= -1
_C404: - x_5_2 + x_6_2 - x_6_5 >= -1
_C405: - x_5_3 + x_6_3 - x_6_5 >= -1
_C406: - x_5_4 + x_6_4 - x_6_5 >= -1
_C407: - x_5_7 - x_6_5 + x_6_7 >= -1
_C408: - x_5_8 - x_6_5 + x_6_8 >= -1
_C409: x_6_7 + x_7_6 = 1
_C41: debut_tache_3 - debut_tache_5 - 153 x_5_3 >= -149
_C410: x_6_1 - x_6_7 - x_7_1 >= -1
_C411: x_6_2 - x_6_7 - x_7_2 >= -1
_C412: x_6_3 - x_6_7 - x_7_3 >= -1
_C413: x_6_4 - x_6_7 - x_7_4 >= -1
_C414: x_6_5 - x_6_7 - x_7_5 >= -1
_C415: - x_6_7 + x_6_8 - x_7_8 >= -1
_C416: x_6_8 + x_8_6 = 1
_C417: x_6_1 - x_6_8 - x_8_1 >= -1
_C418: x_6_2 - x_6_8 - x_8_2 >= -1
_C419: x_6_3 - x_6_8 - x_8_3 >= -1
_C42: debut_tache_3 - debut_tache_5 - 153 x_5_3 <= 3
_C420: x_6_4 - x_6_8 - x_8_4 >= -1
_C421: x_6_5 - x_6_8 - x_8_5 >= -1
_C422: x_6_7 - x_6_8 - x_8_7 >= -1
_C423: x_1_7 + x_7_1 = 1
_C424: - x_1_2 - x_7_1 + x_7_2 >= -1
_C425: - x_1_3 - x_7_1 + x_7_3 >= -1
_C426: - x_1_4 - x_7_1 + x_7_4 >= -1
_C427: - x_1_5 - x_7_1 + x_7_5 >= -1
_C428: - x_1_6 - x_7_1 + x_7_6 >= -1
_C429: - x_1_8 - x_7_1 + x_7_8 >= -1
_C43: debut_tache_3 - debut_tache_6 - 153 x_6_3 >= -127
_C430: x_2_7 + x_7_2 = 1
_C431: - x_2_1 + x_7_1 - x_7_2 >= -1
_C432: - x_2_3 - x_7_2 + x_7_3 >= -1
_C433: - x_2_4 - x_7_2 + x_7_4 >= -1
_C434: - x_2_5 - x_7_2 + x_7_5 >= -1
_C435: - x_2_6 - x_7_2 + x_7_6 >= -1
_C436: - x_2_8 - x_7_2 + x_7_8 >= -1
_C437: x_3_7 + x_7_3 = 1
_C438: - x_3_1 + x_7_1 - x_7_3 >= -1
_C439: - x_3_2 + x_7_2 - x_7_3 >= -1
_C44: debut_tache_3 - debut_tache_6 - 153 x_6_3 <= 25
_C440: - x_3_4 - x_7_3 + x_7_4 >= -1
_C441: - x_3_5 - x_7_3 + x_7_5 >= -1
_C442: - x_3_6 - x_7_3 + x_7_6 >= -1
_C443: - x_3_8 - x_7_3 + x_7_8 >= -1
_C444: x_4_7 + x_7_4 = 1
_C445: - x_4_1 + x_7_1 - x_7_4 >= -1
_C446: - x_4_2 + x_7_2 - x_7_4 >= -1
_C447: - x_4_3 + x_7_3 - x_7_4 >= -1
_C448: - x_4_5 - x_7_4 + x_7_5 >= -1
_C449: - x_4_6 - x_7_4 + x_7_6 >= -1
_C45: debut_tache_3 - debut_tache_7 - 153 x_7_3 >= -138
_C450: - x_4_8 - x_7_4 + x_7_8 >= -1
_C451: x_5_7 + x_7_5 = 1
_C452: - x_5_1 + x_7_1 - x_7_5 >= -1
_C453: - x_5_2 + x_7_2 - x_7_5 >= -1
_C454: - x_5_3 + x_7_3 - x_7_5 >= -1
_C455: - x_5_4 + x_7_4 - x_7_5 >= -1
_C456: - x_5_6 - x_7_5 + x_7_6 >= -1
_C457: - x_5_8 - x_7_5 + x_7_8 >= -1
_C458: x_6_7 + x_7_6 = 1
_C459: - x_6_1 + x_7_1 - x_7_6 >= -1
_C46: debut_tache_3 - debut_tache_7 - 153 x_7_3 <= 14
_C460: - x_6_2 + x_7_2 - x_7_6 >= -1
_C461: - x_6_3 + x_7_3 - x_7_6 >= -1
_C462: - x_6_4 + x_7_4 - x_7_6 >= -1
_C463: - x_6_5 + x_7_5 - x_7_6 >= -1
_C464: - x_6_8 - x_7_6 + x_7_8 >= -1
_C465: x_7_8 + x_8_7 = 1
_C466: x_7_1 - x_7_8 - x_8_1 >= -1
_C467: x_7_2 - x_7_8 - x_8_2 >= -1
_C468: x_7_3 - x_7_8 - x_8_3 >= -1
_C469: x_7_4 - x_7_8 - x_8_4 >= -1
_C47: debut_tache_3 - debut_tache_8 - 153 x_8_3 >= -147
_C470: x_7_5 - x_7_8 - x_8_5 >= -1
_C471: x_7_6 - x_7_8 - x_8_6 >= -1
_C472: x_1_8 + x_8_1 = 1
_C473: - x_1_2 - x_8_1 + x_8_2 >= -1
_C474: - x_1_3 - x_8_1 + x_8_3 >= -1
_C475: - x_1_4 - x_8_1 + x_8_4 >= -1
_C476: - x_1_5 - x_8_1 + x_8_5 >= -1
_C477: - x_1_6 - x_8_1 + x_8_6 >= -1
_C478: - x_1_7 - x_8_1 + x_8_7 >= -1
_C479: x_2_8 + x_8_2 = 1
_C48: debut_tache_3 - debut_tache_8 - 153 x_8_3 <= 5
_C480: - x_2_1 + x_8_1 - x_8_2 >= -1
_C481: - x_2_3 - x_8_2 + x_8_3 >= -1
_C482: - x_2_4 - x_8_2 + x_8_4 >= -1
_C483: - x_2_5 - x_8_2 + x_8_5 >= -1
_C484: - x_2_6 - x_8_2 + x_8_6 >= -1
_C485: - x_2_7 - x_8_2 + x_8_7 >= -1
_C486: x_3_8 + x_8_3 = 1
_C487: - x_3_1 + x_8_1 - x_8_3 >= -1
_C488: - x_3_2 + x_8_2 - x_8_3 >= -1
_C489: - x_3_4 - x_8_3 + x_8_4 >= -1
_C49: debut_tache_4 >= 3
_C490: - x_3_5 - x_8_3 + x_8_5 >= -1
_C491: - x_3_6 - x_8_3 + x_8_6 >= -1
_C492: - x_3_7 - x_8_3 + x_8_7 >= -1
_C493: x_4_8 + x_8_4 = 1
_C494: - x_4_1 + x_8_1 - x_8_4 >= -1
_C495: - x_4_2 + x_8_2 - x_8_4 >= -1
_C496: - x_4_3 + x_8_3 - x_8_4 >= -1
_C497: - x_4_5 - x_8_4 + x_8_5 >= -1
_C498: - x_4_6 - x_8_4 + x_8_6 >= -1
_C499: - x_4_7 - x_8_4 + x_8_7 >= -1
_C5: debut_tache_1 - debut_tache_3 - 153 x_3_1 >= -133
_C50: - debut_tache_4 + t >= 12
_C500: x_5_8 + x_8_5 = 1
_C501: - x_5_1 + x_8_1 - x_8_5 >= -1
_C502: - x_5_2 + x_8_2 - x_8_5 >= -1
_C503: - x_5_3 + x_8_3 - x_8_5 >= -1
_C504: - x_5_4 + x_8_4 - x_8_5 >= -1
_C505: - x_5_6 - x_8_5 + x_8_6 >= -1
_C506: - x_5_7 - x_8_5 + x_8_7 >= -1
_C507: x_6_8 + x_8_6 = 1
_C508: - x_6_1 + x_8_1 - x_8_6 >= -1
_C509: - x_6_2 + x_8_2 - x_8_6 >= -1
_C51: - debut_tache_1 + debut_tache_4 - 153 x_1_4 >= -145
_C510: - x_6_3 + x_8_3 - x_8_6 >= -1
_C511: - x_6_4 + x_8_4 - x_8_6 >= -1
_C512: - x_6_5 + x_8_5 - x_8_6 >= -1
_C513: - x_6_7 - x_8_6 + x_8_7 >= -1
_C514: x_7_8 + x_8_7 = 1
_C515: - x_7_1 + x_8_1 - x_8_7 >= -1
_C516: - x_7_2 + x_8_2 - x_8_7 >= -1
_C517: - x_7_3 + x_8_3 - x_8_7 >= -1
_C518: - x_7_4 + x_8_4 - x_8_7 >= -1
_C519: - x_7_5 + x_8_5 - x_8_7 >= -1
_C52: - debut_tache_1 + debut_tache_4 - 153 x_1_4 <= 7
_C520: - x_7_6 + x_8_6 - x_8_7 >= -1
_C53: - debut_tache_2 + debut_tache_4 - 153 x_2_4 >= -131
_C54: - debut_tache_2 + debut_tache_4 - 153 x_2_4 <= 21
_C55: - debut_tache_3 + debut_tache_4 - 153 x_3_4 >= -133
_C56: - debut_tache_3 + debut_tache_4 - 153 x_3_4 <= 19
_C57: debut_tache_4 - debut_tache_5 - 153 x_5_4 >= -149
_C58: debut_tache_4 - debut_tache_5 - 153 x_5_4 <= 3
_C59: debut_tache_4 - debut_tache_6 - 153 x_6_4 >= -127
_C6: debut_tache_1 - debut_tache_3 - 153 x_3_1 <= 19
_C60: debut_tache_4 - debut_tache_6 - 153 x_6_4 <= 25
_C61: debut_tache_4 - debut_tache_7 - 153 x_7_4 >= -138
_C62: debut_tache_4 - debut_tache_7 - 153 x_7_4 <= 14
_C63: debut_tache_4 - debut_tache_8 - 153 x_8_4 >= -147
_C64: debut_tache_4 - debut_tache_8 - 153 x_8_4 <= 5
_C65: debut_tache_5 >= 4
_C66: - debut_tache_5 + t >= 7
_C67: - debut_tache_1 + debut_tache_5 - 153 x_1_5 >= -145
_C68: - debut_tache_1 + debut_tache_5 - 153 x_1_5 <= 7
_C69: - debut_tache_2 + debut_tache_5 - 153 x_2_5 >= -131
_C7: debut_tache_1 - debut_tache_4 - 153 x_4_1 >= -142
_C70: - debut_tache_2 + debut_tache_5 - 153 x_2_5 <= 21
_C71: - debut_tache_3 + debut_tache_5 - 153 x_3_5 >= -133
_C72: - debut_tache_3 + debut_tache_5 - 153 x_3_5 <= 19
_C73: - debut_tache_4 + debut_tache_5 - 153 x_4_5 >= -142
_C74: - debut_tache_4 + debut_tache_5 - 153 x_4_5 <= 10
_C75: debut_tache_5 - debut_tache_6 - 153 x_6_5 >= -127
_C76: debut_tache_5 - debut_tache_6 - 153 x_6_5 <= 25
_C77: debut_tache_5 - debut_tache_7 - 153 x_7_5 >= -138
_C78: debut_tache_5 - debut_tache_7 - 153 x_7_5 <= 14
_C79: debut_tache_5 - debut_tache_8 - 153 x_8_5 >= -147
_C8: debut_tache_1 - debut_tache_4 - 153 x_4_1 <= 10
_C80: debut_tache_5 - debut_tache_8 - 153 x_8_5 <= 5
_C81: debut_tache_6 >= 2
_C82: - debut_tache_6 + t >= 28
_C83: - debut_tache_1 + debut_tache_6 - 153 x_1_6 >= -145
_C84: - debut_tache_1 + debut_tache_6 - 153 x_1_6 <= 7
_C85: - debut_tache_2 + debut_tache_6 - 153 x_2_6 >= -131
_C86: - debut_tache_2 + debut_tache_6 - 153 x_2_6 <= 21
_C87: - debut_tache_3 + debut_tache_6 - 153 x_3_6 >= -133
_C88: - debut_tache_3 + debut_tache_6 - 153 x_3_6 <= 19
_C89: - debut_tache_4 + debut_tache_6 - 153 x_4_6 >= -142
_C9: debut_tache_1 - debut_tache_5 - 153 x_5_1 >= -149
_C90: - debut_tache_4 + debut_tache_6 - 153 x_4_6 <= 10
_C91: - debut_tache_5 + debut_tache_6 - 153 x_5_6 >= -149
_C92: - debut_tache_5 + debut_tache_6 - 153 x_5_6 <= 3
_C93: debut_tache_6 - debut_tache_7 - 153 x_7_6 >= -138
_C94: debut_tache_6 - debut_tache_7 - 153 x_7_6 <= 14
_C95: debut_tache_6 - debut_tache_8 - 153 x_8_6 >= -147
_C96: debut_tache_6 - debut_tache_8 - 153 x_8_6 <= 5
_C97: debut_tache_7 >= 3
_C98: - debut_tache_7 + t >= 19
_C99: - debut_tache_1 + debut_tache_7 - 153 x_1_7 >= -145
Bounds
0 <= debut_tache_1
0 <= debut_tache_2
0 <= debut_tache_3
0 <= debut_tache_4
0 <= debut_tache_5
0 <= debut_tache_6
0 <= debut_tache_7
0 <= debut_tache_8
0 <= t
Generals
debut_tache_1
debut_tache_2
debut_tache_3
debut_tache_4
debut_tache_5
debut_tache_6
debut_tache_7
debut_tache_8
t
Binaries
x_1_2
x_1_3
x_1_4
x_1_5
x_1_6
x_1_7
x_1_8
x_2_1
x_2_3
x_2_4
x_2_5
x_2_6
x_2_7
x_2_8
x_3_1
x_3_2
x_3_4
x_3_5
x_3_6
x_3_7
x_3_8
x_4_1
x_4_2
x_4_3
x_4_5
x_4_6
x_4_7
x_4_8
x_5_1
x_5_2
x_5_3
x_5_4
x_5_6
x_5_7
x_5_8
x_6_1
x_6_2
x_6_3
x_6_4
x_6_5
x_6_7
x_6_8
x_7_1
x_7_2
x_7_3
x_7_4
x_7_5
x_7_6
x_7_8
x_8_1
x_8_2
x_8_3
x_8_4
x_8_5
x_8_6
x_8_7
End
